! B3LYP def2-SVP CPCM(Toluene) TightSCF
%pal nprocs 4 end
%maxcore 2000
* xyz 0 2
  C      -2.096522     0.124425     0.112915
  C      -1.313615     1.225177     0.454797
  C       0.076089     1.157188     0.341975
  C       0.697068    -0.012929    -0.118946
  C      -0.101645    -1.116578    -0.452493
  C      -1.491180    -1.046425    -0.338916
  C       2.189956    -0.090025    -0.232278
  Br      2.936762    -0.733474     1.442313
  H      -3.178223     0.177220     0.203799
  H      -1.785187     2.136241     0.813971
  H       0.672616     2.023141     0.621360
  H       0.354899    -2.041449    -0.798837
  H      -2.101286    -1.907569    -0.598968
  H       2.504775    -0.783645    -1.017490
  H       2.635494     0.888701    -0.433201
*
%eprnmr
  Nuclei = all H { also C, N, O } { also F, P, Br }
  end
